Set parameter TokenServer to value "hpc-licenses.hpcc.usc.edu"
Set parameter TimeLimit to value 3600
Gurobi Optimizer version 9.5.1 build v9.5.1rc2 (linux64)
Thread count: 20 physical cores, 20 logical processors, using up to 20 threads
Optimize a model with 6007 rows, 4529 columns and 24534 nonzeros
Model fingerprint: 0x38fdea97
Variable types: 4506 continuous, 23 integer (23 binary)
Coefficient statistics:
  Matrix range     [1e+00, 1e+00]
  Objective range  [1e-03, 1e+00]
  Bounds range     [1e+00, 1e+00]
  RHS range        [1e+00, 5e+01]
Presolve removed 1520 rows and 1515 columns
Presolve time: 0.07s
Presolved: 4487 rows, 3014 columns, 21975 nonzeros
Variable types: 2994 continuous, 20 integer (20 binary)
Found heuristic solution: objective 221.6236773

Root relaxation: objective 2.267525e+02, 1606 iterations, 0.09 seconds (0.11 work units)

    Nodes    |    Current Node    |     Objective Bounds      |     Work
 Expl Unexpl |  Obj  Depth IntInf | Incumbent    BestBd   Gap | It/Node Time

     0     0  226.75248    0    3  221.62368  226.75248  2.31%     -    0s
H    0     0                     226.6571011  226.75248  0.04%     -    0s
     0     0  226.69033    0    4  226.65710  226.69033  0.01%     -    0s
     0     0  226.66027    0    2  226.65710  226.66027  0.00%     -    0s

Explored 1 nodes (3316 simplex iterations) in 0.94 seconds (0.48 work units)
Thread count was 20 (of 20 available processors)

Solution count 2: 226.657 221.624 

Optimal solution found (tolerance 1.00e-04)
Best objective 2.266571010874e+02, best bound 2.266602700051e+02, gap 0.0014%



#########node  1
V1.9
#########node  2
0.16666666666666666,0.8333333333333334
#########node  3
1.0,0.0


Total Solving Time 1.3417198657989502
obj value 226.65710108739177
Policy Regret train (Sum) 10.475852471410601
Best Treatment Found train (%) 51.800000000000004
treatment classification acc train (%) 45.0
Policy Regret test (Sum) 171.07608036179815
Best Treatment Found test (%) 53.010000000000005
treatment classification acc test (%) 50.2
